data/lp_files/q3/74_0.lp
\ Model foo
\ LP format - for model browsing. Use MPS format to capture full model detail.
Minimize
  z
Subject To
 allocateEach[1]: x[1,1] + x[2,1] + x[3,1] + x[4,1] = 1
 allocateEach[2]: x[1,2] + x[2,2] + x[3,2] + x[4,2] = 1
 allocateEach[3]: x[1,3] + x[2,3] + x[3,3] + x[4,3] = 1
 allocateEach[4]: x[1,4] + x[2,4] + x[3,4] + x[4,4] = 1
 allocateEach[5]: x[1,5] + x[2,5] + x[3,5] + x[4,5] = 1
 allocateEach[6]: x[1,6] + x[2,6] + x[3,6] + x[4,6] = 1
 allocateEach[7]: x[1,7] + x[2,7] + x[3,7] + x[4,7] = 1
 allocateEach[8]: x[1,8] + x[2,8] + x[3,8] + x[4,8] = 1
 allocateEach[9]: x[1,9] + x[2,9] + x[3,9] + x[4,9] = 1
 allocateEach[10]: x[1,10] + x[2,10] + x[3,10] + x[4,10] = 1
 allocateEach[11]: x[1,11] + x[2,11] + x[3,11] + x[4,11] = 1
 allocateEach[12]: x[1,12] + x[2,12] + x[3,12] + x[4,12] = 1
 allocateEach[13]: x[1,13] + x[2,13] + x[3,13] + x[4,13] = 1
 allocateEach[14]: x[1,14] + x[2,14] + x[3,14] + x[4,14] = 1
 allocateAllCash: cashProportion[1] + cashProportion[2] + cashProportion[3]
   + cashProportion[4] = 1
 findWorstP[1,2]: z + 0.00671925604397081 cashProportion[1]
   - 0.00671925604397081 cashProportion[2] + 0.1264295217233548 x[1,1]
   + 0.0156961821187158 x[1,2] + 0.0227782779890611 x[1,3]
   + 0.0519532877319823 x[1,4] + 0.0484995901253813 x[1,5]
   + 0.1027239864002258 x[1,6] + 0.078964697028745 x[1,7]
   + 0.0932095198419631 x[1,8] + 0.1224920376815879 x[1,9]
   + 0.1302594976684182 x[1,10] + 0.0319030276967734 x[1,11]
   + 0.0338784889737008 x[1,12] + 0.104282853802427 x[1,13]
   + 0.0302097751736928 x[1,14] - 0.1264295217233548 x[2,1]
   - 0.0156961821187158 x[2,2] - 0.0227782779890611 x[2,3]
   - 0.0519532877319823 x[2,4] - 0.0484995901253813 x[2,5]
   - 0.1027239864002258 x[2,6] - 0.078964697028745 x[2,7]
   - 0.0932095198419631 x[2,8] - 0.1224920376815879 x[2,9]
   - 0.1302594976684182 x[2,10] - 0.0319030276967734 x[2,11]
   - 0.0338784889737008 x[2,12] - 0.104282853802427 x[2,13]
   - 0.0302097751736928 x[2,14] >= 0
 findWorstP[1,3]: z + 0.00671925604397081 cashProportion[1]
   - 0.00671925604397081 cashProportion[3] + 0.1264295217233548 x[1,1]
   + 0.0156961821187158 x[1,2] + 0.0227782779890611 x[1,3]
   + 0.0519532877319823 x[1,4] + 0.0484995901253813 x[1,5]
   + 0.1027239864002258 x[1,6] + 0.078964697028745 x[1,7]
   + 0.0932095198419631 x[1,8] + 0.1224920376815879 x[1,9]
   + 0.1302594976684182 x[1,10] + 0.0319030276967734 x[1,11]
   + 0.0338784889737008 x[1,12] + 0.104282853802427 x[1,13]
   + 0.0302097751736928 x[1,14] - 0.1264295217233548 x[3,1]
   - 0.0156961821187158 x[3,2] - 0.0227782779890611 x[3,3]
   - 0.0519532877319823 x[3,4] - 0.0484995901253813 x[3,5]
   - 0.1027239864002258 x[3,6] - 0.078964697028745 x[3,7]
   - 0.0932095198419631 x[3,8] - 0.1224920376815879 x[3,9]
   - 0.1302594976684182 x[3,10] - 0.0319030276967734 x[3,11]
   - 0.0338784889737008 x[3,12] - 0.104282853802427 x[3,13]
   - 0.0302097751736928 x[3,14] >= 0
 findWorstP[1,4]: z + 0.00671925604397081 cashProportion[1]
   - 0.00671925604397081 cashProportion[4] + 0.1264295217233548 x[1,1]
   + 0.0156961821187158 x[1,2] + 0.0227782779890611 x[1,3]
   + 0.0519532877319823 x[1,4] + 0.0484995901253813 x[1,5]
   + 0.1027239864002258 x[1,6] + 0.078964697028745 x[1,7]
   + 0.0932095198419631 x[1,8] + 0.1224920376815879 x[1,9]
   + 0.1302594976684182 x[1,10] + 0.0319030276967734 x[1,11]
   + 0.0338784889737008 x[1,12] + 0.104282853802427 x[1,13]
   + 0.0302097751736928 x[1,14] - 0.1264295217233548 x[4,1]
   - 0.0156961821187158 x[4,2] - 0.0227782779890611 x[4,3]
   - 0.0519532877319823 x[4,4] - 0.0484995901253813 x[4,5]
   - 0.1027239864002258 x[4,6] - 0.078964697028745 x[4,7]
   - 0.0932095198419631 x[4,8] - 0.1224920376815879 x[4,9]
   - 0.1302594976684182 x[4,10] - 0.0319030276967734 x[4,11]
   - 0.0338784889737008 x[4,12] - 0.104282853802427 x[4,13]
   - 0.0302097751736928 x[4,14] >= 0
 findWorstP[2,1]: z - 0.00897633837205127 cashProportion[1]
   + 0.00897633837205127 cashProportion[2] - 0.0091558651394923 x[1,1]
   - 0.0952209974507199 x[1,2] - 0.0823309755484543 x[1,3]
   - 0.1480377724318696 x[1,4] - 0.0886503177623784 x[1,5]
   - 0.0941438368460737 x[1,6] - 0.039047071918423 x[1,7]
   - 0.0899249578112097 x[1,8] - 0.1217550536785035 x[1,9]
   - 0.0314171843021795 x[1,10] - 0.0309145093533446 x[1,11]
   - 0.0829952245879861 x[1,12] - 0.0224408459301282 x[1,13]
   - 0.0549890488671861 x[1,14] + 0.0091558651394923 x[2,1]
   + 0.0952209974507199 x[2,2] + 0.0823309755484543 x[2,3]
   + 0.1480377724318696 x[2,4] + 0.0886503177623784 x[2,5]
   + 0.0941438368460737 x[2,6] + 0.039047071918423 x[2,7]
   + 0.0899249578112097 x[2,8] + 0.1217550536785035 x[2,9]
   + 0.0314171843021795 x[2,10] + 0.0309145093533446 x[2,11]
   + 0.0829952245879861 x[2,12] + 0.0224408459301282 x[2,13]
   + 0.0549890488671861 x[2,14] >= 0
 findWorstP[2,3]: z + 0.00897633837205127 cashProportion[2]
   - 0.00897633837205127 cashProportion[3] + 0.0091558651394923 x[2,1]
   + 0.0952209974507199 x[2,2] + 0.0823309755484543 x[2,3]
   + 0.1480377724318696 x[2,4] + 0.0886503177623784 x[2,5]
   + 0.0941438368460737 x[2,6] + 0.039047071918423 x[2,7]
   + 0.0899249578112097 x[2,8] + 0.1217550536785035 x[2,9]
   + 0.0314171843021795 x[2,10] + 0.0309145093533446 x[2,11]
   + 0.0829952245879861 x[2,12] + 0.0224408459301282 x[2,13]
   + 0.0549890488671861 x[2,14] - 0.0091558651394923 x[3,1]
   - 0.0952209974507199 x[3,2] - 0.0823309755484543 x[3,3]
   - 0.1480377724318696 x[3,4] - 0.0886503177623784 x[3,5]
   - 0.0941438368460737 x[3,6] - 0.039047071918423 x[3,7]
   - 0.0899249578112097 x[3,8] - 0.1217550536785035 x[3,9]
   - 0.0314171843021795 x[3,10] - 0.0309145093533446 x[3,11]
   - 0.0829952245879861 x[3,12] - 0.0224408459301282 x[3,13]
   - 0.0549890488671861 x[3,14] >= 0
 findWorstP[2,4]: z + 0.00897633837205127 cashProportion[2]
   - 0.00897633837205127 cashProportion[4] + 0.0091558651394923 x[2,1]
   + 0.0952209974507199 x[2,2] + 0.0823309755484543 x[2,3]
   + 0.1480377724318696 x[2,4] + 0.0886503177623784 x[2,5]
   + 0.0941438368460737 x[2,6] + 0.039047071918423 x[2,7]
   + 0.0899249578112097 x[2,8] + 0.1217550536785035 x[2,9]
   + 0.0314171843021795 x[2,10] + 0.0309145093533446 x[2,11]
   + 0.0829952245879861 x[2,12] + 0.0224408459301282 x[2,13]
   + 0.0549890488671861 x[2,14] - 0.0091558651394923 x[4,1]
   - 0.0952209974507199 x[4,2] - 0.0823309755484543 x[4,3]
   - 0.1480377724318696 x[4,4] - 0.0886503177623784 x[4,5]
   - 0.0941438368460737 x[4,6] - 0.039047071918423 x[4,7]
   - 0.0899249578112097 x[4,8] - 0.1217550536785035 x[4,9]
   - 0.0314171843021795 x[4,10] - 0.0309145093533446 x[4,11]
   - 0.0829952245879861 x[4,12] - 0.0224408459301282 x[4,13]
   - 0.0549890488671861 x[4,14] >= 0
 findWorstP[3,1]: z - 0.00578516221594854 cashProportion[1]
   + 0.00578516221594854 cashProportion[3] - 0.0506201693895497 x[1,1]
   - 0.0719905586152636 x[1,2] - 0.0978386633961216 x[1,3]
   - 0.0959064192159948 x[1,4] - 0.0539408525015041 x[1,5]
   - 0.0339357615587541 x[1,6] - 0.1039130837228676 x[1,7]
   - 0.0919377979358541 x[1,8] - 0.0429259036423381 x[1,9]
   - 0.0113389179432591 x[1,10] - 0.1155759707502198 x[1,11]
   - 0.1110519738973481 x[1,12] - 0.0359605683343361 x[1,13]
   - 0.0772781968806405 x[1,14] + 0.0506201693895497 x[3,1]
   + 0.0719905586152636 x[3,2] + 0.0978386633961216 x[3,3]
   + 0.0959064192159948 x[3,4] + 0.0539408525015041 x[3,5]
   + 0.0339357615587541 x[3,6] + 0.1039130837228676 x[3,7]
   + 0.0919377979358541 x[3,8] + 0.0429259036423381 x[3,9]
   + 0.0113389179432591 x[3,10] + 0.1155759707502198 x[3,11]
   + 0.1110519738973481 x[3,12] + 0.0359605683343361 x[3,13]
   + 0.0772781968806405 x[3,14] >= 0
 findWorstP[3,2]: z - 0.00578516221594854 cashProportion[2]
   + 0.00578516221594854 cashProportion[3] - 0.0506201693895497 x[2,1]
   - 0.0719905586152636 x[2,2] - 0.0978386633961216 x[2,3]
   - 0.0959064192159948 x[2,4] - 0.0539408525015041 x[2,5]
   - 0.0339357615587541 x[2,6] - 0.1039130837228676 x[2,7]
   - 0.0919377979358541 x[2,8] - 0.0429259036423381 x[2,9]
   - 0.0113389179432591 x[2,10] - 0.1155759707502198 x[2,11]
   - 0.1110519738973481 x[2,12] - 0.0359605683343361 x[2,13]
   - 0.0772781968806405 x[2,14] + 0.0506201693895497 x[3,1]
   + 0.0719905586152636 x[3,2] + 0.0978386633961216 x[3,3]
   + 0.0959064192159948 x[3,4] + 0.0539408525015041 x[3,5]
   + 0.0339357615587541 x[3,6] + 0.1039130837228676 x[3,7]
   + 0.0919377979358541 x[3,8] + 0.0429259036423381 x[3,9]
   + 0.0113389179432591 x[3,10] + 0.1155759707502198 x[3,11]
   + 0.1110519738973481 x[3,12] + 0.0359605683343361 x[3,13]
   + 0.0772781968806405 x[3,14] >= 0
 findWorstP[3,4]: z + 0.00578516221594854 cashProportion[3]
   - 0.00578516221594854 cashProportion[4] + 0.0506201693895497 x[3,1]
   + 0.0719905586152636 x[3,2] + 0.0978386633961216 x[3,3]
   + 0.0959064192159948 x[3,4] + 0.0539408525015041 x[3,5]
   + 0.0339357615587541 x[3,6] + 0.1039130837228676 x[3,7]
   + 0.0919377979358541 x[3,8] + 0.0429259036423381 x[3,9]
   + 0.0113389179432591 x[3,10] + 0.1155759707502198 x[3,11]
   + 0.1110519738973481 x[3,12] + 0.0359605683343361 x[3,13]
   + 0.0772781968806405 x[3,14] - 0.0506201693895497 x[4,1]
   - 0.0719905586152636 x[4,2] - 0.0978386633961216 x[4,3]
   - 0.0959064192159948 x[4,4] - 0.0539408525015041 x[4,5]
   - 0.0339357615587541 x[4,6] - 0.1039130837228676 x[4,7]
   - 0.0919377979358541 x[4,8] - 0.0429259036423381 x[4,9]
   - 0.0113389179432591 x[4,10] - 0.1155759707502198 x[4,11]
   - 0.1110519738973481 x[4,12] - 0.0359605683343361 x[4,13]
   - 0.0772781968806405 x[4,14] >= 0
 findWorstP[4,1]: z - 0.00778246455087397 cashProportion[1]
   + 0.00778246455087397 cashProportion[4] - 0.0379317322209597 x[1,1]
   - 0.1150092611328155 x[1,2] - 0.0256510031596806 x[1,3]
   - 0.1330178841035379 x[1,4] - 0.079038709978676 x[1,5]
   - 0.0304138714648155 x[1,6] - 0.0662443382570392 x[1,7]
   - 0.0783227232399956 x[1,8] - 0.096455865643532 x[1,9]
   - 0.0949460675206624 x[1,10] - 0.00812489299111242 x[1,11]
   - 0.0723146606067209 x[1,12] - 0.0475197285476365 x[1,13]
   - 0.1072267965819415 x[1,14] + 0.0379317322209597 x[4,1]
   + 0.1150092611328155 x[4,2] + 0.0256510031596806 x[4,3]
   + 0.1330178841035379 x[4,4] + 0.079038709978676 x[4,5]
   + 0.0304138714648155 x[4,6] + 0.0662443382570392 x[4,7]
   + 0.0783227232399956 x[4,8] + 0.096455865643532 x[4,9]
   + 0.0949460675206624 x[4,10] + 0.00812489299111242 x[4,11]
   + 0.0723146606067209 x[4,12] + 0.0475197285476365 x[4,13]
   + 0.1072267965819415 x[4,14] >= 0
 findWorstP[4,2]: z - 0.00778246455087397 cashProportion[2]
   + 0.00778246455087397 cashProportion[4] - 0.0379317322209597 x[2,1]
   - 0.1150092611328155 x[2,2] - 0.0256510031596806 x[2,3]
   - 0.1330178841035379 x[2,4] - 0.079038709978676 x[2,5]
   - 0.0304138714648155 x[2,6] - 0.0662443382570392 x[2,7]
   - 0.0783227232399956 x[2,8] - 0.096455865643532 x[2,9]
   - 0.0949460675206624 x[2,10] - 0.00812489299111242 x[2,11]
   - 0.0723146606067209 x[2,12] - 0.0475197285476365 x[2,13]
   - 0.1072267965819415 x[2,14] + 0.0379317322209597 x[4,1]
   + 0.1150092611328155 x[4,2] + 0.0256510031596806 x[4,3]
   + 0.1330178841035379 x[4,4] + 0.079038709978676 x[4,5]
   + 0.0304138714648155 x[4,6] + 0.0662443382570392 x[4,7]
   + 0.0783227232399956 x[4,8] + 0.096455865643532 x[4,9]
   + 0.0949460675206624 x[4,10] + 0.00812489299111242 x[4,11]
   + 0.0723146606067209 x[4,12] + 0.0475197285476365 x[4,13]
   + 0.1072267965819415 x[4,14] >= 0
 findWorstP[4,3]: z - 0.00778246455087397 cashProportion[3]
   + 0.00778246455087397 cashProportion[4] - 0.0379317322209597 x[3,1]
   - 0.1150092611328155 x[3,2] - 0.0256510031596806 x[3,3]
   - 0.1330178841035379 x[3,4] - 0.079038709978676 x[3,5]
   - 0.0304138714648155 x[3,6] - 0.0662443382570392 x[3,7]
   - 0.0783227232399956 x[3,8] - 0.096455865643532 x[3,9]
   - 0.0949460675206624 x[3,10] - 0.00812489299111242 x[3,11]
   - 0.0723146606067209 x[3,12] - 0.0475197285476365 x[3,13]
   - 0.1072267965819415 x[3,14] + 0.0379317322209597 x[4,1]
   + 0.1150092611328155 x[4,2] + 0.0256510031596806 x[4,3]
   + 0.1330178841035379 x[4,4] + 0.079038709978676 x[4,5]
   + 0.0304138714648155 x[4,6] + 0.0662443382570392 x[4,7]
   + 0.0783227232399956 x[4,8] + 0.096455865643532 x[4,9]
   + 0.0949460675206624 x[4,10] + 0.00812489299111242 x[4,11]
   + 0.0723146606067209 x[4,12] + 0.0475197285476365 x[4,13]
   + 0.1072267965819415 x[4,14] >= 0
Bounds
 z <= 1
 -infinity <= cashProportion[1] <= 1
 -infinity <= cashProportion[2] <= 1
 -infinity <= cashProportion[3] <= 1
 -infinity <= cashProportion[4] <= 1
Binaries
 x[1,1] x[1,2] x[1,3] x[1,4] x[1,5] x[1,6] x[1,7] x[1,8] x[1,9] x[1,10]
 x[1,11] x[1,12] x[1,13] x[1,14] x[2,1] x[2,2] x[2,3] x[2,4] x[2,5] x[2,6]
 x[2,7] x[2,8] x[2,9] x[2,10] x[2,11] x[2,12] x[2,13] x[2,14] x[3,1] x[3,2]
 x[3,3] x[3,4] x[3,5] x[3,6] x[3,7] x[3,8] x[3,9] x[3,10] x[3,11] x[3,12]
 x[3,13] x[3,14] x[4,1] x[4,2] x[4,3] x[4,4] x[4,5] x[4,6] x[4,7] x[4,8]
 x[4,9] x[4,10] x[4,11] x[4,12] x[4,13] x[4,14]
End
