data/mps_files/pEFS/74_0.mps
NAME foo
ROWS
 N  OBJ
 E  allocateEach[1]
 E  allocateEach[2]
 E  allocateEach[3]
 E  allocateEach[4]
 E  allocateEach[5]
 E  allocateEach[6]
 E  allocateEach[7]
 E  allocateEach[8]
 E  allocateEach[9]
 E  allocateEach[10]
 E  allocateEach[11]
 E  allocateEach[12]
 E  allocateEach[13]
 E  allocateEach[14]
 E  allocateAllCash
 G  findWorstP[1,2]
 G  findWorstP[1,3]
 G  findWorstP[1,4]
 G  findWorstP[2,1]
 G  findWorstP[2,3]
 G  findWorstP[2,4]
 G  findWorstP[3,1]
 G  findWorstP[3,2]
 G  findWorstP[3,4]
 G  findWorstP[4,1]
 G  findWorstP[4,2]
 G  findWorstP[4,3]
COLUMNS
    z         OBJ       1
    z         findWorstP[1,2]  1
    z         findWorstP[1,3]  1
    z         findWorstP[1,4]  1
    z         findWorstP[2,1]  1
    z         findWorstP[2,3]  1
    z         findWorstP[2,4]  1
    z         findWorstP[3,1]  1
    z         findWorstP[3,2]  1
    z         findWorstP[3,4]  1
    z         findWorstP[4,1]  1
    z         findWorstP[4,2]  1
    z         findWorstP[4,3]  1
    cashProportion[1]  allocateAllCash  1
    cashProportion[1]  findWorstP[1,2]  6.7192560439708129e-03
    cashProportion[1]  findWorstP[1,3]  6.7192560439708129e-03
    cashProportion[1]  findWorstP[1,4]  6.7192560439708129e-03
    cashProportion[1]  findWorstP[2,1]  -8.9763383720512738e-03
    cashProportion[1]  findWorstP[3,1]  -5.7851622159485359e-03
    cashProportion[1]  findWorstP[4,1]  -7.7824645508739708e-03
    cashProportion[2]  allocateAllCash  1
    cashProportion[2]  findWorstP[1,2]  -6.7192560439708129e-03
    cashProportion[2]  findWorstP[2,1]  8.9763383720512738e-03
    cashProportion[2]  findWorstP[2,3]  8.9763383720512738e-03
    cashProportion[2]  findWorstP[2,4]  8.9763383720512738e-03
    cashProportion[2]  findWorstP[3,2]  -5.7851622159485359e-03
    cashProportion[2]  findWorstP[4,2]  -7.7824645508739708e-03
    cashProportion[3]  allocateAllCash  1
    cashProportion[3]  findWorstP[1,3]  -6.7192560439708129e-03
    cashProportion[3]  findWorstP[2,3]  -8.9763383720512738e-03
    cashProportion[3]  findWorstP[3,1]  5.7851622159485359e-03
    cashProportion[3]  findWorstP[3,2]  5.7851622159485359e-03
    cashProportion[3]  findWorstP[3,4]  5.7851622159485359e-03
    cashProportion[3]  findWorstP[4,3]  -7.7824645508739708e-03
    cashProportion[4]  allocateAllCash  1
    cashProportion[4]  findWorstP[1,4]  -6.7192560439708129e-03
    cashProportion[4]  findWorstP[2,4]  -8.9763383720512738e-03
    cashProportion[4]  findWorstP[3,4]  -5.7851622159485359e-03
    cashProportion[4]  findWorstP[4,1]  7.7824645508739708e-03
    cashProportion[4]  findWorstP[4,2]  7.7824645508739708e-03
    cashProportion[4]  findWorstP[4,3]  7.7824645508739708e-03
    MARKER    'MARKER'                 'INTORG'
    x[1,1]    allocateEach[1]  1
    x[1,1]    findWorstP[1,2]  1.2642952172335481e-01
    x[1,1]    findWorstP[1,3]  1.2642952172335481e-01
    x[1,1]    findWorstP[1,4]  1.2642952172335481e-01
    x[1,1]    findWorstP[2,1]  -9.1558651394922988e-03
    x[1,1]    findWorstP[3,1]  -5.0620169389549684e-02
    x[1,1]    findWorstP[4,1]  -3.7931732220959732e-02
    x[1,2]    allocateEach[2]  1
    x[1,2]    findWorstP[1,2]  1.5696182118715818e-02
    x[1,2]    findWorstP[1,3]  1.5696182118715818e-02
    x[1,2]    findWorstP[1,4]  1.5696182118715818e-02
    x[1,2]    findWorstP[2,1]  -9.5220997450719908e-02
    x[1,2]    findWorstP[3,1]  -7.1990558615263572e-02
    x[1,2]    findWorstP[4,1]  -1.1500926113281552e-01
    x[1,3]    allocateEach[3]  1
    x[1,3]    findWorstP[1,2]  2.2778277989061058e-02
    x[1,3]    findWorstP[1,3]  2.2778277989061058e-02
    x[1,3]    findWorstP[1,4]  2.2778277989061058e-02
    x[1,3]    findWorstP[2,1]  -8.2330975548454283e-02
    x[1,3]    findWorstP[3,1]  -9.7838663396121628e-02
    x[1,3]    findWorstP[4,1]  -2.5651003159680604e-02
    x[1,4]    allocateEach[4]  1
    x[1,4]    findWorstP[1,2]  5.1953287731982323e-02
    x[1,4]    findWorstP[1,3]  5.1953287731982323e-02
    x[1,4]    findWorstP[1,4]  5.1953287731982323e-02
    x[1,4]    findWorstP[2,1]  -1.4803777243186961e-01
    x[1,4]    findWorstP[3,1]  -9.5906419215994812e-02
    x[1,4]    findWorstP[4,1]  -1.3301788410353790e-01
    x[1,5]    allocateEach[5]  1
    x[1,5]    findWorstP[1,2]  4.8499590125381326e-02
    x[1,5]    findWorstP[1,3]  4.8499590125381326e-02
    x[1,5]    findWorstP[1,4]  4.8499590125381326e-02
    x[1,5]    findWorstP[2,1]  -8.8650317762378375e-02
    x[1,5]    findWorstP[3,1]  -5.3940852501504141e-02
    x[1,5]    findWorstP[4,1]  -7.9038709978676042e-02
    x[1,6]    allocateEach[6]  1
    x[1,6]    findWorstP[1,2]  1.0272398640022579e-01
    x[1,6]    findWorstP[1,3]  1.0272398640022579e-01
    x[1,6]    findWorstP[1,4]  1.0272398640022579e-01
    x[1,6]    findWorstP[2,1]  -9.4143836846073747e-02
    x[1,6]    findWorstP[3,1]  -3.3935761558754107e-02
    x[1,6]    findWorstP[4,1]  -3.0413871464815473e-02
    x[1,7]    allocateEach[7]  1
    x[1,7]    findWorstP[1,2]  7.8964697028744993e-02
    x[1,7]    findWorstP[1,3]  7.8964697028744993e-02
    x[1,7]    findWorstP[1,4]  7.8964697028744993e-02
    x[1,7]    findWorstP[2,1]  -3.9047071918423042e-02
    x[1,7]    findWorstP[3,1]  -1.0391308372286759e-01
    x[1,7]    findWorstP[4,1]  -6.6244338257039237e-02
    x[1,8]    allocateEach[8]  1
    x[1,8]    findWorstP[1,2]  9.3209519841963115e-02
    x[1,8]    findWorstP[1,3]  9.3209519841963115e-02
    x[1,8]    findWorstP[1,4]  9.3209519841963115e-02
    x[1,8]    findWorstP[2,1]  -8.9924957811209655e-02
    x[1,8]    findWorstP[3,1]  -9.1937797935854118e-02
    x[1,8]    findWorstP[4,1]  -7.8322723239995631e-02
    x[1,9]    allocateEach[9]  1
    x[1,9]    findWorstP[1,2]  1.2249203768158792e-01
    x[1,9]    findWorstP[1,3]  1.2249203768158792e-01
    x[1,9]    findWorstP[1,4]  1.2249203768158792e-01
    x[1,9]    findWorstP[2,1]  -1.2175505367850348e-01
    x[1,9]    findWorstP[3,1]  -4.2925903642338135e-02
    x[1,9]    findWorstP[4,1]  -0.096455865643532
    x[1,10]   allocateEach[10]  1
    x[1,10]   findWorstP[1,2]  1.3025949766841818e-01
    x[1,10]   findWorstP[1,3]  1.3025949766841818e-01
    x[1,10]   findWorstP[1,4]  1.3025949766841818e-01
    x[1,10]   findWorstP[2,1]  -3.1417184302179456e-02
    x[1,10]   findWorstP[3,1]  -1.1338917943259129e-02
    x[1,10]   findWorstP[4,1]  -9.4946067520662439e-02
    x[1,11]   allocateEach[11]  1
    x[1,11]   findWorstP[1,2]  3.1903027696773417e-02
    x[1,11]   findWorstP[1,3]  3.1903027696773417e-02
    x[1,11]   findWorstP[1,4]  3.1903027696773417e-02
    x[1,11]   findWorstP[2,1]  -3.0914509353344586e-02
    x[1,11]   findWorstP[3,1]  -1.1557597075021984e-01
    x[1,11]   findWorstP[4,1]  -8.1248929911124246e-03
    x[1,12]   allocateEach[12]  1
    x[1,12]   findWorstP[1,2]  3.3878488973700840e-02
    x[1,12]   findWorstP[1,3]  3.3878488973700840e-02
    x[1,12]   findWorstP[1,4]  3.3878488973700840e-02
    x[1,12]   findWorstP[2,1]  -8.2995224587986069e-02
    x[1,12]   findWorstP[3,1]  -1.1105197389734808e-01
    x[1,12]   findWorstP[4,1]  -7.2314660606720926e-02
    x[1,13]   allocateEach[13]  1
    x[1,13]   findWorstP[1,2]  1.0428285380242702e-01
    x[1,13]   findWorstP[1,3]  1.0428285380242702e-01
    x[1,13]   findWorstP[1,4]  1.0428285380242702e-01
    x[1,13]   findWorstP[2,1]  -2.2440845930128184e-02
    x[1,13]   findWorstP[3,1]  -0.0359605683343361
    x[1,13]   findWorstP[4,1]  -4.7519728547636461e-02
    x[1,14]   allocateEach[14]  1
    x[1,14]   findWorstP[1,2]  3.0209775173692777e-02
    x[1,14]   findWorstP[1,3]  3.0209775173692777e-02
    x[1,14]   findWorstP[1,4]  3.0209775173692777e-02
    x[1,14]   findWorstP[2,1]  -5.4989048867186106e-02
    x[1,14]   findWorstP[3,1]  -7.7278196880640540e-02
    x[1,14]   findWorstP[4,1]  -1.0722679658194155e-01
    x[2,1]    allocateEach[1]  1
    x[2,1]    findWorstP[1,2]  -1.2642952172335481e-01
    x[2,1]    findWorstP[2,1]  9.1558651394922988e-03
    x[2,1]    findWorstP[2,3]  9.1558651394922988e-03
    x[2,1]    findWorstP[2,4]  9.1558651394922988e-03
    x[2,1]    findWorstP[3,2]  -5.0620169389549684e-02
    x[2,1]    findWorstP[4,2]  -3.7931732220959732e-02
    x[2,2]    allocateEach[2]  1
    x[2,2]    findWorstP[1,2]  -1.5696182118715818e-02
    x[2,2]    findWorstP[2,1]  9.5220997450719908e-02
    x[2,2]    findWorstP[2,3]  9.5220997450719908e-02
    x[2,2]    findWorstP[2,4]  9.5220997450719908e-02
    x[2,2]    findWorstP[3,2]  -7.1990558615263572e-02
    x[2,2]    findWorstP[4,2]  -1.1500926113281552e-01
    x[2,3]    allocateEach[3]  1
    x[2,3]    findWorstP[1,2]  -2.2778277989061058e-02
    x[2,3]    findWorstP[2,1]  8.2330975548454283e-02
    x[2,3]    findWorstP[2,3]  8.2330975548454283e-02
    x[2,3]    findWorstP[2,4]  8.2330975548454283e-02
    x[2,3]    findWorstP[3,2]  -9.7838663396121628e-02
    x[2,3]    findWorstP[4,2]  -2.5651003159680604e-02
    x[2,4]    allocateEach[4]  1
    x[2,4]    findWorstP[1,2]  -5.1953287731982323e-02
    x[2,4]    findWorstP[2,1]  1.4803777243186961e-01
    x[2,4]    findWorstP[2,3]  1.4803777243186961e-01
    x[2,4]    findWorstP[2,4]  1.4803777243186961e-01
    x[2,4]    findWorstP[3,2]  -9.5906419215994812e-02
    x[2,4]    findWorstP[4,2]  -1.3301788410353790e-01
    x[2,5]    allocateEach[5]  1
    x[2,5]    findWorstP[1,2]  -4.8499590125381326e-02
    x[2,5]    findWorstP[2,1]  8.8650317762378375e-02
    x[2,5]    findWorstP[2,3]  8.8650317762378375e-02
    x[2,5]    findWorstP[2,4]  8.8650317762378375e-02
    x[2,5]    findWorstP[3,2]  -5.3940852501504141e-02
    x[2,5]    findWorstP[4,2]  -7.9038709978676042e-02
    x[2,6]    allocateEach[6]  1
    x[2,6]    findWorstP[1,2]  -1.0272398640022579e-01
    x[2,6]    findWorstP[2,1]  9.4143836846073747e-02
    x[2,6]    findWorstP[2,3]  9.4143836846073747e-02
    x[2,6]    findWorstP[2,4]  9.4143836846073747e-02
    x[2,6]    findWorstP[3,2]  -3.3935761558754107e-02
    x[2,6]    findWorstP[4,2]  -3.0413871464815473e-02
    x[2,7]    allocateEach[7]  1
    x[2,7]    findWorstP[1,2]  -7.8964697028744993e-02
    x[2,7]    findWorstP[2,1]  3.9047071918423042e-02
    x[2,7]    findWorstP[2,3]  3.9047071918423042e-02
    x[2,7]    findWorstP[2,4]  3.9047071918423042e-02
    x[2,7]    findWorstP[3,2]  -1.0391308372286759e-01
    x[2,7]    findWorstP[4,2]  -6.6244338257039237e-02
    x[2,8]    allocateEach[8]  1
    x[2,8]    findWorstP[1,2]  -9.3209519841963115e-02
    x[2,8]    findWorstP[2,1]  8.9924957811209655e-02
    x[2,8]    findWorstP[2,3]  8.9924957811209655e-02
    x[2,8]    findWorstP[2,4]  8.9924957811209655e-02
    x[2,8]    findWorstP[3,2]  -9.1937797935854118e-02
    x[2,8]    findWorstP[4,2]  -7.8322723239995631e-02
    x[2,9]    allocateEach[9]  1
    x[2,9]    findWorstP[1,2]  -1.2249203768158792e-01
    x[2,9]    findWorstP[2,1]  1.2175505367850348e-01
    x[2,9]    findWorstP[2,3]  1.2175505367850348e-01
    x[2,9]    findWorstP[2,4]  1.2175505367850348e-01
    x[2,9]    findWorstP[3,2]  -4.2925903642338135e-02
    x[2,9]    findWorstP[4,2]  -0.096455865643532
    x[2,10]   allocateEach[10]  1
    x[2,10]   findWorstP[1,2]  -1.3025949766841818e-01
    x[2,10]   findWorstP[2,1]  3.1417184302179456e-02
    x[2,10]   findWorstP[2,3]  3.1417184302179456e-02
    x[2,10]   findWorstP[2,4]  3.1417184302179456e-02
    x[2,10]   findWorstP[3,2]  -1.1338917943259129e-02
    x[2,10]   findWorstP[4,2]  -9.4946067520662439e-02
    x[2,11]   allocateEach[11]  1
    x[2,11]   findWorstP[1,2]  -3.1903027696773417e-02
    x[2,11]   findWorstP[2,1]  3.0914509353344586e-02
    x[2,11]   findWorstP[2,3]  3.0914509353344586e-02
    x[2,11]   findWorstP[2,4]  3.0914509353344586e-02
    x[2,11]   findWorstP[3,2]  -1.1557597075021984e-01
    x[2,11]   findWorstP[4,2]  -8.1248929911124246e-03
    x[2,12]   allocateEach[12]  1
    x[2,12]   findWorstP[1,2]  -3.3878488973700840e-02
    x[2,12]   findWorstP[2,1]  8.2995224587986069e-02
    x[2,12]   findWorstP[2,3]  8.2995224587986069e-02
    x[2,12]   findWorstP[2,4]  8.2995224587986069e-02
    x[2,12]   findWorstP[3,2]  -1.1105197389734808e-01
    x[2,12]   findWorstP[4,2]  -7.2314660606720926e-02
    x[2,13]   allocateEach[13]  1
    x[2,13]   findWorstP[1,2]  -1.0428285380242702e-01
    x[2,13]   findWorstP[2,1]  2.2440845930128184e-02
    x[2,13]   findWorstP[2,3]  2.2440845930128184e-02
    x[2,13]   findWorstP[2,4]  2.2440845930128184e-02
    x[2,13]   findWorstP[3,2]  -0.0359605683343361
    x[2,13]   findWorstP[4,2]  -4.7519728547636461e-02
    x[2,14]   allocateEach[14]  1
    x[2,14]   findWorstP[1,2]  -3.0209775173692777e-02
    x[2,14]   findWorstP[2,1]  5.4989048867186106e-02
    x[2,14]   findWorstP[2,3]  5.4989048867186106e-02
    x[2,14]   findWorstP[2,4]  5.4989048867186106e-02
    x[2,14]   findWorstP[3,2]  -7.7278196880640540e-02
    x[2,14]   findWorstP[4,2]  -1.0722679658194155e-01
    x[3,1]    allocateEach[1]  1
    x[3,1]    findWorstP[1,3]  -1.2642952172335481e-01
    x[3,1]    findWorstP[2,3]  -9.1558651394922988e-03
    x[3,1]    findWorstP[3,1]  5.0620169389549684e-02
    x[3,1]    findWorstP[3,2]  5.0620169389549684e-02
    x[3,1]    findWorstP[3,4]  5.0620169389549684e-02
    x[3,1]    findWorstP[4,3]  -3.7931732220959732e-02
    x[3,2]    allocateEach[2]  1
    x[3,2]    findWorstP[1,3]  -1.5696182118715818e-02
    x[3,2]    findWorstP[2,3]  -9.5220997450719908e-02
    x[3,2]    findWorstP[3,1]  7.1990558615263572e-02
    x[3,2]    findWorstP[3,2]  7.1990558615263572e-02
    x[3,2]    findWorstP[3,4]  7.1990558615263572e-02
    x[3,2]    findWorstP[4,3]  -1.1500926113281552e-01
    x[3,3]    allocateEach[3]  1
    x[3,3]    findWorstP[1,3]  -2.2778277989061058e-02
    x[3,3]    findWorstP[2,3]  -8.2330975548454283e-02
    x[3,3]    findWorstP[3,1]  9.7838663396121628e-02
    x[3,3]    findWorstP[3,2]  9.7838663396121628e-02
    x[3,3]    findWorstP[3,4]  9.7838663396121628e-02
    x[3,3]    findWorstP[4,3]  -2.5651003159680604e-02
    x[3,4]    allocateEach[4]  1
    x[3,4]    findWorstP[1,3]  -5.1953287731982323e-02
    x[3,4]    findWorstP[2,3]  -1.4803777243186961e-01
    x[3,4]    findWorstP[3,1]  9.5906419215994812e-02
    x[3,4]    findWorstP[3,2]  9.5906419215994812e-02
    x[3,4]    findWorstP[3,4]  9.5906419215994812e-02
    x[3,4]    findWorstP[4,3]  -1.3301788410353790e-01
    x[3,5]    allocateEach[5]  1
    x[3,5]    findWorstP[1,3]  -4.8499590125381326e-02
    x[3,5]    findWorstP[2,3]  -8.8650317762378375e-02
    x[3,5]    findWorstP[3,1]  5.3940852501504141e-02
    x[3,5]    findWorstP[3,2]  5.3940852501504141e-02
    x[3,5]    findWorstP[3,4]  5.3940852501504141e-02
    x[3,5]    findWorstP[4,3]  -7.9038709978676042e-02
    x[3,6]    allocateEach[6]  1
    x[3,6]    findWorstP[1,3]  -1.0272398640022579e-01
    x[3,6]    findWorstP[2,3]  -9.4143836846073747e-02
    x[3,6]    findWorstP[3,1]  3.3935761558754107e-02
    x[3,6]    findWorstP[3,2]  3.3935761558754107e-02
    x[3,6]    findWorstP[3,4]  3.3935761558754107e-02
    x[3,6]    findWorstP[4,3]  -3.0413871464815473e-02
    x[3,7]    allocateEach[7]  1
    x[3,7]    findWorstP[1,3]  -7.8964697028744993e-02
    x[3,7]    findWorstP[2,3]  -3.9047071918423042e-02
    x[3,7]    findWorstP[3,1]  1.0391308372286759e-01
    x[3,7]    findWorstP[3,2]  1.0391308372286759e-01
    x[3,7]    findWorstP[3,4]  1.0391308372286759e-01
    x[3,7]    findWorstP[4,3]  -6.6244338257039237e-02
    x[3,8]    allocateEach[8]  1
    x[3,8]    findWorstP[1,3]  -9.3209519841963115e-02
    x[3,8]    findWorstP[2,3]  -8.9924957811209655e-02
    x[3,8]    findWorstP[3,1]  9.1937797935854118e-02
    x[3,8]    findWorstP[3,2]  9.1937797935854118e-02
    x[3,8]    findWorstP[3,4]  9.1937797935854118e-02
    x[3,8]    findWorstP[4,3]  -7.8322723239995631e-02
    x[3,9]    allocateEach[9]  1
    x[3,9]    findWorstP[1,3]  -1.2249203768158792e-01
    x[3,9]    findWorstP[2,3]  -1.2175505367850348e-01
    x[3,9]    findWorstP[3,1]  4.2925903642338135e-02
    x[3,9]    findWorstP[3,2]  4.2925903642338135e-02
    x[3,9]    findWorstP[3,4]  4.2925903642338135e-02
    x[3,9]    findWorstP[4,3]  -0.096455865643532
    x[3,10]   allocateEach[10]  1
    x[3,10]   findWorstP[1,3]  -1.3025949766841818e-01
    x[3,10]   findWorstP[2,3]  -3.1417184302179456e-02
    x[3,10]   findWorstP[3,1]  1.1338917943259129e-02
    x[3,10]   findWorstP[3,2]  1.1338917943259129e-02
    x[3,10]   findWorstP[3,4]  1.1338917943259129e-02
    x[3,10]   findWorstP[4,3]  -9.4946067520662439e-02
    x[3,11]   allocateEach[11]  1
    x[3,11]   findWorstP[1,3]  -3.1903027696773417e-02
    x[3,11]   findWorstP[2,3]  -3.0914509353344586e-02
    x[3,11]   findWorstP[3,1]  1.1557597075021984e-01
    x[3,11]   findWorstP[3,2]  1.1557597075021984e-01
    x[3,11]   findWorstP[3,4]  1.1557597075021984e-01
    x[3,11]   findWorstP[4,3]  -8.1248929911124246e-03
    x[3,12]   allocateEach[12]  1
    x[3,12]   findWorstP[1,3]  -3.3878488973700840e-02
    x[3,12]   findWorstP[2,3]  -8.2995224587986069e-02
    x[3,12]   findWorstP[3,1]  1.1105197389734808e-01
    x[3,12]   findWorstP[3,2]  1.1105197389734808e-01
    x[3,12]   findWorstP[3,4]  1.1105197389734808e-01
    x[3,12]   findWorstP[4,3]  -7.2314660606720926e-02
    x[3,13]   allocateEach[13]  1
    x[3,13]   findWorstP[1,3]  -1.0428285380242702e-01
    x[3,13]   findWorstP[2,3]  -2.2440845930128184e-02
    x[3,13]   findWorstP[3,1]  0.0359605683343361
    x[3,13]   findWorstP[3,2]  0.0359605683343361
    x[3,13]   findWorstP[3,4]  0.0359605683343361
    x[3,13]   findWorstP[4,3]  -4.7519728547636461e-02
    x[3,14]   allocateEach[14]  1
    x[3,14]   findWorstP[1,3]  -3.0209775173692777e-02
    x[3,14]   findWorstP[2,3]  -5.4989048867186106e-02
    x[3,14]   findWorstP[3,1]  7.7278196880640540e-02
    x[3,14]   findWorstP[3,2]  7.7278196880640540e-02
    x[3,14]   findWorstP[3,4]  7.7278196880640540e-02
    x[3,14]   findWorstP[4,3]  -1.0722679658194155e-01
    x[4,1]    allocateEach[1]  1
    x[4,1]    findWorstP[1,4]  -1.2642952172335481e-01
    x[4,1]    findWorstP[2,4]  -9.1558651394922988e-03
    x[4,1]    findWorstP[3,4]  -5.0620169389549684e-02
    x[4,1]    findWorstP[4,1]  3.7931732220959732e-02
    x[4,1]    findWorstP[4,2]  3.7931732220959732e-02
    x[4,1]    findWorstP[4,3]  3.7931732220959732e-02
    x[4,2]    allocateEach[2]  1
    x[4,2]    findWorstP[1,4]  -1.5696182118715818e-02
    x[4,2]    findWorstP[2,4]  -9.5220997450719908e-02
    x[4,2]    findWorstP[3,4]  -7.1990558615263572e-02
    x[4,2]    findWorstP[4,1]  1.1500926113281552e-01
    x[4,2]    findWorstP[4,2]  1.1500926113281552e-01
    x[4,2]    findWorstP[4,3]  1.1500926113281552e-01
    x[4,3]    allocateEach[3]  1
    x[4,3]    findWorstP[1,4]  -2.2778277989061058e-02
    x[4,3]    findWorstP[2,4]  -8.2330975548454283e-02
    x[4,3]    findWorstP[3,4]  -9.7838663396121628e-02
    x[4,3]    findWorstP[4,1]  2.5651003159680604e-02
    x[4,3]    findWorstP[4,2]  2.5651003159680604e-02
    x[4,3]    findWorstP[4,3]  2.5651003159680604e-02
    x[4,4]    allocateEach[4]  1
    x[4,4]    findWorstP[1,4]  -5.1953287731982323e-02
    x[4,4]    findWorstP[2,4]  -1.4803777243186961e-01
    x[4,4]    findWorstP[3,4]  -9.5906419215994812e-02
    x[4,4]    findWorstP[4,1]  1.3301788410353790e-01
    x[4,4]    findWorstP[4,2]  1.3301788410353790e-01
    x[4,4]    findWorstP[4,3]  1.3301788410353790e-01
    x[4,5]    allocateEach[5]  1
    x[4,5]    findWorstP[1,4]  -4.8499590125381326e-02
    x[4,5]    findWorstP[2,4]  -8.8650317762378375e-02
    x[4,5]    findWorstP[3,4]  -5.3940852501504141e-02
    x[4,5]    findWorstP[4,1]  7.9038709978676042e-02
    x[4,5]    findWorstP[4,2]  7.9038709978676042e-02
    x[4,5]    findWorstP[4,3]  7.9038709978676042e-02
    x[4,6]    allocateEach[6]  1
    x[4,6]    findWorstP[1,4]  -1.0272398640022579e-01
    x[4,6]    findWorstP[2,4]  -9.4143836846073747e-02
    x[4,6]    findWorstP[3,4]  -3.3935761558754107e-02
    x[4,6]    findWorstP[4,1]  3.0413871464815473e-02
    x[4,6]    findWorstP[4,2]  3.0413871464815473e-02
    x[4,6]    findWorstP[4,3]  3.0413871464815473e-02
    x[4,7]    allocateEach[7]  1
    x[4,7]    findWorstP[1,4]  -7.8964697028744993e-02
    x[4,7]    findWorstP[2,4]  -3.9047071918423042e-02
    x[4,7]    findWorstP[3,4]  -1.0391308372286759e-01
    x[4,7]    findWorstP[4,1]  6.6244338257039237e-02
    x[4,7]    findWorstP[4,2]  6.6244338257039237e-02
    x[4,7]    findWorstP[4,3]  6.6244338257039237e-02
    x[4,8]    allocateEach[8]  1
    x[4,8]    findWorstP[1,4]  -9.3209519841963115e-02
    x[4,8]    findWorstP[2,4]  -8.9924957811209655e-02
    x[4,8]    findWorstP[3,4]  -9.1937797935854118e-02
    x[4,8]    findWorstP[4,1]  7.8322723239995631e-02
    x[4,8]    findWorstP[4,2]  7.8322723239995631e-02
    x[4,8]    findWorstP[4,3]  7.8322723239995631e-02
    x[4,9]    allocateEach[9]  1
    x[4,9]    findWorstP[1,4]  -1.2249203768158792e-01
    x[4,9]    findWorstP[2,4]  -1.2175505367850348e-01
    x[4,9]    findWorstP[3,4]  -4.2925903642338135e-02
    x[4,9]    findWorstP[4,1]  0.096455865643532
    x[4,9]    findWorstP[4,2]  0.096455865643532
    x[4,9]    findWorstP[4,3]  0.096455865643532
    x[4,10]   allocateEach[10]  1
    x[4,10]   findWorstP[1,4]  -1.3025949766841818e-01
    x[4,10]   findWorstP[2,4]  -3.1417184302179456e-02
    x[4,10]   findWorstP[3,4]  -1.1338917943259129e-02
    x[4,10]   findWorstP[4,1]  9.4946067520662439e-02
    x[4,10]   findWorstP[4,2]  9.4946067520662439e-02
    x[4,10]   findWorstP[4,3]  9.4946067520662439e-02
    x[4,11]   allocateEach[11]  1
    x[4,11]   findWorstP[1,4]  -3.1903027696773417e-02
    x[4,11]   findWorstP[2,4]  -3.0914509353344586e-02
    x[4,11]   findWorstP[3,4]  -1.1557597075021984e-01
    x[4,11]   findWorstP[4,1]  8.1248929911124246e-03
    x[4,11]   findWorstP[4,2]  8.1248929911124246e-03
    x[4,11]   findWorstP[4,3]  8.1248929911124246e-03
    x[4,12]   allocateEach[12]  1
    x[4,12]   findWorstP[1,4]  -3.3878488973700840e-02
    x[4,12]   findWorstP[2,4]  -8.2995224587986069e-02
    x[4,12]   findWorstP[3,4]  -1.1105197389734808e-01
    x[4,12]   findWorstP[4,1]  7.2314660606720926e-02
    x[4,12]   findWorstP[4,2]  7.2314660606720926e-02
    x[4,12]   findWorstP[4,3]  7.2314660606720926e-02
    x[4,13]   allocateEach[13]  1
    x[4,13]   findWorstP[1,4]  -1.0428285380242702e-01
    x[4,13]   findWorstP[2,4]  -2.2440845930128184e-02
    x[4,13]   findWorstP[3,4]  -0.0359605683343361
    x[4,13]   findWorstP[4,1]  4.7519728547636461e-02
    x[4,13]   findWorstP[4,2]  4.7519728547636461e-02
    x[4,13]   findWorstP[4,3]  4.7519728547636461e-02
    x[4,14]   allocateEach[14]  1
    x[4,14]   findWorstP[1,4]  -3.0209775173692777e-02
    x[4,14]   findWorstP[2,4]  -5.4989048867186106e-02
    x[4,14]   findWorstP[3,4]  -7.7278196880640540e-02
    x[4,14]   findWorstP[4,1]  1.0722679658194155e-01
    x[4,14]   findWorstP[4,2]  1.0722679658194155e-01
    x[4,14]   findWorstP[4,3]  1.0722679658194155e-01
    MARKER    'MARKER'                 'INTEND'
RHS
    RHS1      allocateEach[1]  1
    RHS1      allocateEach[2]  1
    RHS1      allocateEach[3]  1
    RHS1      allocateEach[4]  1
    RHS1      allocateEach[5]  1
    RHS1      allocateEach[6]  1
    RHS1      allocateEach[7]  1
    RHS1      allocateEach[8]  1
    RHS1      allocateEach[9]  1
    RHS1      allocateEach[10]  1
    RHS1      allocateEach[11]  1
    RHS1      allocateEach[12]  1
    RHS1      allocateEach[13]  1
    RHS1      allocateEach[14]  1
    RHS1      allocateAllCash  1
BOUNDS
 UP BND1      z         1
 MI BND1      cashProportion[1]
 UP BND1      cashProportion[1]  1
 MI BND1      cashProportion[2]
 UP BND1      cashProportion[2]  1
 MI BND1      cashProportion[3]
 UP BND1      cashProportion[3]  1
 MI BND1      cashProportion[4]
 UP BND1      cashProportion[4]  1
 BV BND1      x[1,1]  
 BV BND1      x[1,2]  
 BV BND1      x[1,3]  
 BV BND1      x[1,4]  
 BV BND1      x[1,5]  
 BV BND1      x[1,6]  
 BV BND1      x[1,7]  
 BV BND1      x[1,8]  
 BV BND1      x[1,9]  
 BV BND1      x[1,10] 
 BV BND1      x[1,11] 
 BV BND1      x[1,12] 
 BV BND1      x[1,13] 
 BV BND1      x[1,14] 
 BV BND1      x[2,1]  
 BV BND1      x[2,2]  
 BV BND1      x[2,3]  
 BV BND1      x[2,4]  
 BV BND1      x[2,5]  
 BV BND1      x[2,6]  
 BV BND1      x[2,7]  
 BV BND1      x[2,8]  
 BV BND1      x[2,9]  
 BV BND1      x[2,10] 
 BV BND1      x[2,11] 
 BV BND1      x[2,12] 
 BV BND1      x[2,13] 
 BV BND1      x[2,14] 
 BV BND1      x[3,1]  
 BV BND1      x[3,2]  
 BV BND1      x[3,3]  
 BV BND1      x[3,4]  
 BV BND1      x[3,5]  
 BV BND1      x[3,6]  
 BV BND1      x[3,7]  
 BV BND1      x[3,8]  
 BV BND1      x[3,9]  
 BV BND1      x[3,10] 
 BV BND1      x[3,11] 
 BV BND1      x[3,12] 
 BV BND1      x[3,13] 
 BV BND1      x[3,14] 
 BV BND1      x[4,1]  
 BV BND1      x[4,2]  
 BV BND1      x[4,3]  
 BV BND1      x[4,4]  
 BV BND1      x[4,5]  
 BV BND1      x[4,6]  
 BV BND1      x[4,7]  
 BV BND1      x[4,8]  
 BV BND1      x[4,9]  
 BV BND1      x[4,10] 
 BV BND1      x[4,11] 
 BV BND1      x[4,12] 
 BV BND1      x[4,13] 
 BV BND1      x[4,14] 
ENDATA
